certificates/rado_a11_c136_N30.cnf
c Rad2 upper bound instance: x1 + 11*x2 - x3 = 136, interval [1,30]
p cnf 30 160
1 8 13 0
-1 -8 -13 0
1 14 19 0
-1 -14 -19 0
1 15 30 0
-1 -15 -30 0
2 9 13 0
-2 -9 -13 0
2 14 20 0
-2 -14 -20 0
3 10 13 0
-3 -10 -13 0
3 14 21 0
-3 -14 -21 0
4 11 13 0
-4 -11 -13 0
4 14 22 0
-4 -14 -22 0
1 5 12 0
-1 -5 -12 0
5 12 13 0
-5 -12 -13 0
5 14 23 0
-5 -14 -23 0
2 6 12 0
-2 -6 -12 0
6 13 0
-6 -13 0
6 14 24 0
-6 -14 -24 0
3 7 12 0
-3 -7 -12 0
7 13 14 0
-7 -13 -14 0
7 14 25 0
-7 -14 -25 0
4 8 12 0
-4 -8 -12 0
8 13 15 0
-8 -13 -15 0
8 14 26 0
-8 -14 -26 0
5 9 12 0
-5 -9 -12 0
9 13 16 0
-9 -13 -16 0
9 14 27 0
-9 -14 -27 0
6 10 12 0
-6 -10 -12 0
10 13 17 0
-10 -13 -17 0
10 14 28 0
-10 -14 -28 0
7 11 12 0
-7 -11 -12 0
11 13 18 0
-11 -13 -18 0
11 14 29 0
-11 -14 -29 0
8 12 0
-8 -12 0
12 13 19 0
-12 -13 -19 0
12 14 30 0
-12 -14 -30 0
9 12 13 0
-9 -12 -13 0
13 20 0
-13 -20 0
10 12 14 0
-10 -12 -14 0
13 14 21 0
-13 -14 -21 0
11 12 15 0
-11 -12 -15 0
13 15 22 0
-13 -15 -22 0
1 11 16 0
-1 -11 -16 0
12 16 0
-12 -16 0
13 16 23 0
-13 -16 -23 0
2 11 17 0
-2 -11 -17 0
12 13 17 0
-12 -13 -17 0
13 17 24 0
-13 -17 -24 0
3 11 18 0
-3 -11 -18 0
12 14 18 0
-12 -14 -18 0
13 18 25 0
-13 -18 -25 0
4 11 19 0
-4 -11 -19 0
12 15 19 0
-12 -15 -19 0
13 19 26 0
-13 -19 -26 0
5 11 20 0
-5 -11 -20 0
12 16 20 0
-12 -16 -20 0
13 20 27 0
-13 -20 -27 0
6 11 21 0
-6 -11 -21 0
12 17 21 0
-12 -17 -21 0
13 21 28 0
-13 -21 -28 0
7 11 22 0
-7 -11 -22 0
12 18 22 0
-12 -18 -22 0
13 22 29 0
-13 -22 -29 0
8 11 23 0
-8 -11 -23 0
12 19 23 0
-12 -19 -23 0
13 23 30 0
-13 -23 -30 0
9 11 24 0
-9 -11 -24 0
12 20 24 0
-12 -20 -24 0
10 11 25 0
-10 -11 -25 0
12 21 25 0
-12 -21 -25 0
11 26 0
-11 -26 0
12 22 26 0
-12 -22 -26 0
1 10 27 0
-1 -10 -27 0
11 12 27 0
-11 -12 -27 0
12 23 27 0
-12 -23 -27 0
2 10 28 0
-2 -10 -28 0
11 13 28 0
-11 -13 -28 0
12 24 28 0
-12 -24 -28 0
3 10 29 0
-3 -10 -29 0
12 25 29 0
-12 -25 -29 0
4 10 30 0
-4 -10 -30 0
11 15 30 0
-11 -15 -30 0
12 26 30 0
-12 -26 -30 0
