certificates/rado_a11_c136_N30.drat
-26 -30 0
13 14 -30 0
-29 -30 0
14 -30 0
d 13 14 -30 0
-30 0
13 -14 0
-14 0
12 0
-8 0
-16 0
26 0
-11 0
-22 0
15 0
29 0
23 0
1 0
4 0
7 0
-19 0
-25 0
-27 0
-5 0
-3 0
10 0
9 0
20 0
18 0
21 0
-6 0
-13 0
-24 0
-17 0
0
